webassembly/ejemplos_dzn/folder5_json_55.dzn
TERM = { '.', 'in_1', 'local_0', 'in_2', 's(0)', 'in_0'};
null = '.';
s = 5;
n = 9;
ndeps = 2;
max_registers_sz = 3;
NR = 0;
registers = [| |];
dependencies = [|'i32.load8_u_2', 'i32.store8_3', |'i32.store8_3', 'i32.store_4'|];
GET_ENUM = { GET1, GET2, GET3};
SET_ENUM = { SET1, SET2, SET3};
TEE_ENUM = { TEE1, TEE2, TEE3};
N = 4;
OP = { 'i32.load8_u_2', 'i32.store8_3', 'i32.store_4', 'local.get_0' };
in_ops = [1, 2, 2, 0 ];
out_ops = [1, 0, 0, 1 ];
in1 = ['local_0', 's(0)', 'in_1', '.' ];
in2 = ['.', 'in_0', 'in_2', '.' ];
in3 = ['.', '.', '.', '.' ];
out1 = ['s(0)', '.', '.', 'local_0' ];
out2 = ['.', '.', '.', '.' ];
out3 = ['.', '.', '.', '.' ];
comm = [false, false, false, false ];
gas = [1, 1, 1, 1 ];
sz = [1, 1, 1, 1 ];
stor = [false, true, true, false ];
lb = [ 1, 1, 1, 1 ];
ub = [ 5, 5, 5, 5 ];
startstack = [ 'in_0', 'in_1', 'in_2', null, null, null, null, null, null ];
endstack = [ null, null, null, null, null, null, null, null, null ];
