webassembly/ejemplos_results/5/folder5_json_55.txt
value = 5;
fgas = [1, 1, 1, 1, 2];
fsize = [1, 1, 1, 1, 1];
states = 
[|    in_0, in_1, in_2,  '.', '.', '.', '.', '.', '.'
 | local_0, in_0, in_1, in_2, '.', '.', '.', '.', '.'
 |  's(0)', in_0, in_1, in_2, '.', '.', '.', '.', '.'
 |    in_1, in_2,  '.',  '.', '.', '.', '.', '.', '.'
 |    in_0,  '.',  '.',  '.', '.', '.', '.', '.', '.'
 |     '.',  '.',  '.',  '.', '.', '.', '.', '.', '.'
 |];
register_states = 
[| '.', '.', '.'
 | '.', '.', '.'
 | '.', '.', '.'
 | '.', '.', '.'
 | '.', '.', '.'
 | '.', '.', '.'
 |];
program = [O('local.get_0'), O('i32.load8_u_2'), O('i32.store8_3'), O('i32.store_4'), POP];
% time elapsed: 0.08 s
----------
value = 4;
fgas = [1, 1, 1, 1, 0];
fsize = [1, 1, 1, 1, 1];
states = 
[|    in_0, in_1, in_2,  '.', '.', '.', '.', '.', '.'
 | local_0, in_0, in_1, in_2, '.', '.', '.', '.', '.'
 |  's(0)', in_0, in_1, in_2, '.', '.', '.', '.', '.'
 |    in_1, in_2,  '.',  '.', '.', '.', '.', '.', '.'
 |     '.',  '.',  '.',  '.', '.', '.', '.', '.', '.'
 |     '.',  '.',  '.',  '.', '.', '.', '.', '.', '.'
 |];
register_states = 
[| '.', '.', '.'
 | '.', '.', '.'
 | '.', '.', '.'
 | '.', '.', '.'
 | '.', '.', '.'
 | '.', '.', '.'
 |];
program = [O('local.get_0'), O('i32.load8_u_2'), O('i32.store8_3'), O('i32.store_4'), NOP];
% time elapsed: 0.08 s
----------
==========
% time elapsed: 0.08 s
% [value > 3]
